<instance format="XCSP3" type="CSP">
  <variables>
    <var id="x0"> 0 5 12 </var>
    <var id="x1"> 0 2 10 </var>
    <var id="x2"> 0 15 </var>
    <var id="x3"> 7 10 </var>
    <var id="x4"> 0 5 10 </var>
    <var id="x5"> 0 10 12 15 </var>
    <var id="x6"> 0 7 10 12 </var>
    <var id="x7"> 2 11 12 14 15 </var>
    <var id="x8"> 4 6 12 </var>
    <var id="x9"> 4 14 15 </var>
    <var id="x10"> 4 6 14 15 17 </var>
    <var id="x11"> 2 12 14 15 17 </var>
    <var id="x12"> 11 </var>
    <var id="x13"> 2 11 17 </var>
    <var id="x14"> 4 11 12 14 17 </var>
    <var id="x15"> 2 8 11 15 </var>
    <var id="x16"> 2 4 13 15 </var>
    <var id="x17"> 1 4 15 </var>
    <var id="x18"> 1 2 4 10 11 </var>
    <var id="x19"> 1 2 4 11 15 </var>
    <var id="x20"> 1 8 10 13 </var>
    <var id="x21"> 10 11 13 </var>
    <var id="x22"> 8 10 13 </var>
    <var id="x23"> 2 3 8 14 </var>
    <var id="x24"> 6 8 17 </var>
    <var id="x25"> 6 14 </var>
    <var id="x26"> 2..4 16 </var>
    <var id="x27"> 3 4 6 14 17 </var>
    <var id="x28"> 2 4 16 </var>
    <var id="x29"> 2..4 16 </var>
    <var id="x30"> 3 8 17 </var>
    <var id="x31"> 8 11 12 </var>
    <var id="x32"> 0 1 8 12 17 </var>
    <var id="x33"> 0 1 4 11 17 </var>
    <var id="x34"> 0 11 16 </var>
    <var id="x35"> 8 11 16 17 </var>
    <var id="x36"> 0 8 11 12 17 </var>
    <var id="x37"> 4 8 11 12 17 </var>
    <var id="x38"> 0 1 8 16 17 </var>
    <var id="x39"> 3 5 8 14 15 </var>
    <var id="x40"> 13..15 </var>
    <var id="x41"> 3 13 15 16 </var>
    <var id="x42"> 14..16 </var>
    <var id="x43"> 14 15 17 </var>
    <var id="x44"> 3 8 13 16 17 </var>
    <var id="x45"> 8 14 15 17 </var>
    <var id="x46"> 3 5 8 14 17 </var>
    <var id="x47"> 12..15 </var>
    <var id="x48"> 13..15 </var>
    <var id="x49"> 1 2 12 15 16 </var>
    <var id="x50"> 1 8 13 </var>
    <var id="x51"> 2 12 14 15 </var>
    <var id="x52"> 2 8 13 16 </var>
    <var id="x53"> 2 12 13 16 </var>
    <var id="x54"> 1 2 8 13 16 </var>
    <var id="x55"> 11..13 </var>
    <var id="x56"> 2 12 13 </var>
    <var id="x57"> 0 1 12 13 </var>
    <var id="x58"> 1 8 13 </var>
    <var id="x59"> 0 2 9 12 </var>
    <var id="x60"> 0 9 11 13 </var>
    <var id="x61"> 2 8 9 11 13 </var>
    <var id="x62"> 0..2 8 13 </var>
    <var id="x63"> 3 7 13 </var>
    <var id="x64"> 13 </var>
    <var id="x65"> 10 11 17 </var>
    <var id="x66"> 9 11 </var>
    <var id="x67"> 9 10 14 17 </var>
    <var id="x68"> 3 10 11 13 </var>
    <var id="x69"> 3 11 14 17 </var>
    <var id="x70"> 10 13 17 </var>
    <var id="x71"> 3 5 11 14 </var>
    <var id="x72"> 4 9 14 </var>
    <var id="x73"> 3 4 6 14 </var>
    <var id="x74"> 4 9 11 </var>
    <var id="x75"> 3 10 </var>
    <var id="x76"> 9 10 14 </var>
    <var id="x77"> 3 10 </var>
    <var id="x78"> 3..5 11 14 </var>
    <var id="x79"> 12 15 </var>
    <var id="x80"> 12 13 </var>
    <var id="x81"> 4 7 15 16 </var>
    <var id="x82"> 7 10 13 </var>
    <var id="x83"> 13 16 </var>
    <var id="x84"> 4 10 12 13 16 </var>
    <var id="x85"> 10 13 16 </var>
    <var id="x86"> 10 11 14 </var>
    <var id="x87"> 3 </var>
    <var id="x88"> 0 1 5 </var>
    <var id="x89"> 0 1 14 </var>
    <var id="x90"> 1 11 </var>
    <var id="x91"> 1 3 10 17 </var>
    <var id="x92"> 0 10 11 14 17 </var>
    <var id="x93"> 3 10 11 </var>
    <var id="x94"> 2 8 12 15 </var>
    <var id="x95"> 0 12 13 </var>
    <var id="x96"> 0 13 15 17 </var>
    <var id="x97"> 0 2 9 12 15 17 </var>
    <var id="x98"> 2 8 9 13 17 </var>
    <var id="x99"> 0 8 12 13 17 </var>
    <var id="x100"> 8 12 17 </var>
    <var id="x101"> 0 2 8 13 17 </var>
    <var id="x102"> 0 1 6 12 13 </var>
    <var id="x103"> 3 12 13 15 </var>
    <var id="x104"> 0 1 15 </var>
    <var id="x105"> 0 3 10 13 </var>
    <var id="x106"> 3 13 </var>
    <var as="x5" id="x107"/>
    <var id="x108"> 3 10 12 13 </var>
    <var id="x109"> 0 1 10 13 </var>
    <var id="x110"> 7 10..12 </var>
    <var id="x111"> 3 4 7 12 16 </var>
    <var id="x112"> 0 4 12 </var>
    <var id="x113"> 0 3 10 11 16 </var>
    <var id="x114"> 0 10..12 </var>
    <var id="x115"> 3 4 10..12 16 </var>
    <var id="x116"> 0 3 7 10 12 </var>
    <var id="x117"> 3 4 11 12 </var>
    <var id="x118"> 0 1 5 12 13 17 </var>
    <var id="x119"> 11..13 </var>
    <var id="x120"> 0 1 4 5 12 13 </var>
    <var as="x33" id="x121"/>
    <var id="x122"> 0 4 13 17 </var>
    <var id="x123"> 0 12 17 </var>
    <var id="x124"> 0 5 11 13 </var>
    <var id="x125"> 0 11 12 17 </var>
    <var id="x126"> 0 12 13 17 </var>
    <var id="x127"> 0 9 </var>
    <var id="x128"> 0 10 17 </var>
    <var id="x129"> 9 12 </var>
    <var as="x108" id="x130"/>
    <var id="x131"> 0 3 10 12 13 17 </var>
    <var id="x132"> 3 12 17 </var>
    <var id="x133"> 0 8 13 17 </var>
    <var id="x134"> 7 13 </var>
    <var id="x135"> 0 2 17 </var>
    <var id="x136"> 0 3 13 17 </var>
    <var id="x137"> 2 16 </var>
    <var id="x138"> 0 8 17 </var>
    <var id="x139"> 0 3 7 8 13 17 </var>
    <var id="x140"> 0 2 8 13 16 17 </var>
  </variables>
  <constraints>
    <group>
      <allDifferent> %... </allDifferent>
      <args> x0 x1 x2 x3 x4 x5 x6 </args>
      <args> x7 x8 x9 x10 x11 x12 x13 x14 </args>
      <args> x15 x16 x17 x18 x19 x20 x21 x22 </args>
      <args> x23 x24 x25 x26 x27 x28 x29 x30 </args>
      <args> x31 x32 x33 x34 x35 x36 x37 x38 </args>
      <args> x39 x40 x41 x42 x43 x44 x45 x46 </args>
      <args> x47 x48 x49 x50 x51 x52 x53 x54 </args>
      <args> x55 x56 x57 x58 x59 x60 x61 x62 </args>
      <args> x63 x64 x65 x66 x67 x68 x69 x70 </args>
      <args> x71 x72 x73 x74 x75 x76 x77 x78 </args>
      <args> x79 x80 x81 x82 x83 x84 x85 </args>
      <args> x86 x87 x88 x89 x90 x91 x92 x93 </args>
      <args> x94 x95 x96 x97 x98 x99 x100 x101 </args>
      <args> x102 x103 x104 x105 x106 x107 x108 x109 </args>
      <args> x110 x111 x112 x113 x114 x115 x116 x117 </args>
      <args> x118 x119 x120 x121 x122 x123 x124 x125 </args>
      <args> x126 x127 x128 x129 x130 x131 x132 </args>
      <args> x133 x134 x135 x136 x137 x138 x139 x140 </args>
      <args> x7 x15 x23 x31 x39 x71 x79 x94 </args>
      <args> x0 x24 x32 x80 x102 x118 x126 x133 </args>
      <args> x25 x40 x47 x55 x86 x110 x119 x134 </args>
      <args> x16 x26 x41 x56 x63 x87 x103 x111 </args>
      <args> x8 x57 x64 x88 x95 x112 x120 </args>
      <args> x9 x17 x42 x72 x81 x89 x104 x127 </args>
      <args> x1 x18 x33 x65 x121 x128 x135 </args>
      <args> x2 x10 x27 x48 x73 x96 x122 x136 </args>
      <args> x19 x28 x49 x66 x74 x90 x129 x137 </args>
      <args> x3 x20 x50 x58 x75 x82 x91 </args>
      <args> x11 x43 x51 x59 x67 x76 x97 x123 </args>
      <args> x4 x12 x21 x34 x60 x105 x113 x124 </args>
      <args> x13 x35 x44 x52 x61 x83 x98 x106 </args>
      <args> x5 x36 x45 x92 x107 x114 x125 x138 </args>
      <args> x29 x53 x68 x84 x93 x108 x115 x130 </args>
      <args> x6 x22 x30 x77 x99 x116 x131 x139 </args>
      <args> x14 x37 x46 x69 x78 x100 x117 x132 </args>
      <args> x38 x54 x62 x70 x85 x101 x109 x140 </args>
    </group>
  </constraints>
</instance>

